objective value:                                    0
t_slack#10#19                                       1 	(obj:0)
t_slack#0#14                                        1 	(obj:0)
t_slack#0#6                                         1 	(obj:0)
t_slack#0#9                                         1 	(obj:0)
t_slack#1#14                                        1 	(obj:0)
t_slack#1#12                                        1 	(obj:0)
t_slack#18#0                                        1 	(obj:0)
t_slack#18#10                                       1 	(obj:0)
t_slack#14#5                                        1 	(obj:0)
t_slack#14#16                                       1 	(obj:0)
t_slack#14#7                                        1 	(obj:0)
t_slack#14#6                                        1 	(obj:0)
t_slack#14#17                                       1 	(obj:0)
t_slack#11#16                                       1 	(obj:0)
t_slack#11#3                                        1 	(obj:0)
t_slack#12#11                                       1 	(obj:0)
t_slack#12#8                                        1 	(obj:0)
t_slack#12#13                                       1 	(obj:0)
t_slack#5#19                                        1 	(obj:0)
t_slack#5#10                                        1 	(obj:0)
t_slack#5#8                                         1 	(obj:0)
t_slack#5#2                                         1 	(obj:0)
t_slack#5#9                                         1 	(obj:0)
t_slack#17#18                                       1 	(obj:0)
t_slack#4#0                                         1 	(obj:0)
t_slack#4#10                                        1 	(obj:0)
t_slack#4#15                                        1 	(obj:0)
t_slack#4#13                                        1 	(obj:0)
t_slack#13#10                                       1 	(obj:0)
t_slack#13#15                                       1 	(obj:0)
t_slack#8#6                                         1 	(obj:0)
t_slack#8#13                                        1 	(obj:0)
t_slack#9#19                                        1 	(obj:0)
t_slack#3#15                                        1 	(obj:0)
t_slack#3#2                                         1 	(obj:0)
t_slack#3#17                                        1 	(obj:0)
t_slack#16#9                                        1 	(obj:0)
